(set-logic QF_FP)
(set-option :produce-models true)
(set-info :source |Random FP created by PyMPF|)
(set-info :category random)
(set-info :status sat)
(declare-const x Float32)
(assert (= x (fp #b1 #b01111101 #b01101011101101111111001)))
(declare-const y Float32)
(assert (= y ((_ to_fp 8 24) #x2845A690)))
(declare-const result Float32)
(assert (= result (fp.mul RTP x y)))
(assert (= result (fp #b1 #b01001111 #b00011000110100010011001)))
(check-sat)
(exit)
